c --- [ banner ] -------------------------------------------------------------
c 
c CaDiCaL Radically Simplified CDCL SAT Solver
c Copyright (c) 2016-2021 A. Biere, M. Fleury, N. Froleyks
c 
c Version 1.5.2 9c38a080b32c28d805e8e6ca21849856b0cda605
c g++ (Ubuntu 7.5.0-3ubuntu1~18.04) 7.5.0 -Wall -Wextra -O3 -DNDEBUG
c Wed Feb 16 23:15:36 EST 2022 Linux fac-vanhoeve01 5.4.0-99-generic x86_64
c 
c --- [ limit ] --------------------------------------------------------------
c 
c setting time limit to 600 seconds real time (due to '-t 600')
c setting conflict limit to 1000000000 conflicts (due to '1000000000')
c 
c --- [ parsing input ] ------------------------------------------------------
c 
c reading DIMACS file from 'ddfwcnfs/wap01a.col_41.cnf'
c opening file to read 'ddfwcnfs/wap01a.col_41.cnf'
c found 'p cnf 97088 4382234' header
c parsed 4382234 clauses in 2.64 seconds process time
c closing file 'ddfwcnfs/wap01a.col_41.cnf'
c after reading 70166206 bytes 66.9 MB
c 
c --- [ options ] ------------------------------------------------------------
c 
c all options are set to their default value
c 
c --- [ solving ] ------------------------------------------------------------
c 
c time measured in process time since initialization
c 
c  seconds   reductions  redundant   irredundant
c          MB    restarts       trail        variables
c           level   conflicts       glue          remaining
c 
c *  2.65 386  0 0   0    0    0  0% 0 4380553 95407 98%
c {  2.69 389  0 0   0    0    0  0% 0 4380553 95407 98%
c -  3.50 389 40 1   0  300  184  9% 24 4380553 95407 98%
c }  3.61 389 32 1   2 1000  694  7% 24 4380553 95407 98%
c [  3.61 389  0 1   2 1000  694  0% 0 4380553 95407 98%
c O  3.61 389 51 1   2 1002  696  5% 38 4380553 95407 98%
c -  5.85 490 44 2   2 1885 1113  4% 40 4380553 95407 98%
c ]  5.95 490 46 2   3 3001 1882  4% 42 4380553 95407 98%
c {  5.95 490 32 2   3 3001 1882  7% 24 4380553 95407 98%
c F  5.95 490 32 2   3 3003 1884  7% 24 4380553 95407 98%
c -  7.56 490 28 3   4 4263 1837  5% 22 4380553 95407 98%
c # 11.37 488 26 3   6 6005 2946  4% 21 4380553 95407 98%
c } 11.44 488 29 3 240 7001 3243  4% 22 4380553 95407 98%
c [ 11.44 488 46 3 240 7001 3243  4% 42 4380553 95407 98%
c - 13.04 488 47 4 241 7433 2286  4% 41 4380553 95407 98%
c I 13.31 488 54 4 242 10006 4201  4% 42 4380553 95407 98%
c s 15.19 488 3845 4 243 11043 4507 12% 50 4380553 95407 98%
c e 25.04 488 3845 4 243 11043 2036 12% 50 4108136 90493 93%
c s 26.56 502 3845 4 243 11043 2036 12% 50 4108136 90493 93%
c - 30.84 507 5041 5 244 11396 2208 16% 52 4108136 90493 93%
c 
c  seconds     reductions   redundant    irredundant
c          MB      restarts        trail         variables
c            level     conflicts       glue           remaining
c 
c ] 31.64 507 8639 5 245 15003 5090 36% 72 4108136 90493 93%
c { 31.64 507 29 5 245 15003 5090  4% 22 4108136 90493 93%
c B 35.74 507 38 5 247 15008 5095  4% 22 4108136 90493 93%
c - 37.45 508 45 6 530 16100 3808  5% 25 4108136 90493 93%
c W 39.53 508 42 6 1781 21009 5305  6% 31 4108136 90493 93%
c - 42.04 522 58 7 1930 21588 2759  7% 32 4108136 90493 93%
c - 45.32 522 51 8 3514 27861 2578  7% 34 4108136 90493 93%
c F 45.35 522 51 8 3549 28010 2631  7% 34 4108136 90493 93%
c } 51.48 522 48 8 3551 31005 4720  7% 34 4108136 90493 93%
c [ 51.48 522 8639 8 3551 31005 4720 36% 72 4108136 90493 93%
c - 54.06 523 6121 9 3553 34918 5769 28% 64 4108136 90493 93%
c B 54.22 523 5648 9 3554 36012 6421 26% 63 4108136 90493 93%
c - 58.68 525 4400 10 3558 42760 7592 28% 76 4108136 90493 93%
c W 62.20 525 4094 10 3558 45013 9443 30% 77 4108136 90493 93%
c - 71.57 525 3370 11 3559 51386 8588 31% 74 4108136 90493 93%
c O 72.74 525 3086 11 3560 55015 11664 34% 79 4108136 90493 93%
c - 76.19 526 2571 12 3565 60795 10029 30% 77 4108136 90493 93%
c ] 76.69 526 2412 12 3566 63005 11747 29% 76 4108136 90493 93%
c { 76.69 526 48 12 3566 63005 11747  7% 34 4108136 90493 93%
c B 77.15 526 47 12 4070 66016 12892  7% 34 4108136 90493 93%
c 
c  seconds   reductions     redundant    irredundant
c          MB     restarts         trail         variables
c           level      conflicts       glue           remaining
c 
c - 80.18 524 50 13 4895 70989 9360  7% 35 4108136 90493 93%
c W 89.03 524 55 13 5428 78018 14730  8% 36 4108136 90493 93%
c - 92.24 524 59 14 6112 81966 10116  8% 38 4108136 90493 93%
c # 93.28 524 62 14 8384 91019 14034  8% 43 4108136 90493 93%
c - 95.22 524 60 15 8391 93728 8521  8% 43 4108136 90493 93%
c B 101.45 524 57 15 8403 105020 16148  7% 42 4108136 90493 93%
c - 103.58 524 63 16 8418 106274 11098  8% 42 4108136 90493 93%
c - 107.09 525 80 17 8543 119604 12998  9% 42 4108136 90493 93%
c W 109.89 525 80 17 8543 120022 13306  9% 42 4108136 90493 93%
c } 110.79 525 76 17 8546 127006 17850  8% 42 4108136 90493 93%
c [ 110.79 525 2412 17 8546 127006 17850 29% 76 4108136 90493 93%
c - 113.43 525 2015 18 8549 133718 13095 26% 70 4108136 90493 93%
c w 118.42 525 2015 18 8549 133718 13095 26% 70 4108136 90493 93%
c B 119.30 525 2198 18 8551 136023 14831 25% 70 4108136 90493 93%
c - 126.71 526 1706 19 8554 148618 14700 24% 68 4108136 90493 93%
c W 130.57 526 1580 19 8555 153025 18058 24% 68 4108136 90493 93%
c - 134.33 528 5166 20 8555 164300 15676 31% 65 4108136 90493 93%
c I 135.81 528 6437 20 8558 171027 20736 35% 65 4108136 90493 93%
c - 143.90 529 5678 21 8563 180765 17381 33% 71 4108136 90493 93%
c B 146.20 529 4971 21 8569 190029 25042 31% 75 4108136 90493 93%
c 
c  seconds      reductions       redundant    irredundant
c           MB       restarts           trail         variables
c             level       conflicts         glue           remaining
c 
c - 149.74 531 5387 22 8570 198016 18572 33% 78 4108136 90493 93%
c W 156.03 531 4616 22 8577 210031 28187 33% 80 4108136 90493 93%
c - 158.94 529 4270 23 8580 216051 19719 32% 81 4108136 90493 93%
c O 165.02 529 3516 23 8585 231032 29879 28% 79 4108136 90493 93%
c - 167.18 527 3349 24 8586 234870 18252 27% 77 4108136 90493 93%
c B 169.08 527 2680 24 8587 253034 29850 23% 71 4108136 90493 93%
c - 170.99 526 3178 25 8587 254474 17643 24% 72 4108136 90493 93%
c ] 171.08 526 3347 25 8587 255006 18055 24% 72 4108136 90493 93%
c { 171.08 526 76 25 8587 255006 18055  8% 42 4108136 90493 93%
c - 175.43 526 76 26 9360 274860 17930  9% 42 4108136 90493 93%
c F 179.85 526 75 26 9360 276037 18652  9% 42 4108136 90493 93%
c - 183.97 526 68 27 9405 296031 20083  9% 42 4108136 90493 93%
c B 184.58 526 67 27 9415 300039 23036  9% 42 4108136 90493 93%
c - 188.64 527 127 28 9433 317985 22766  8% 42 4108136 90493 93%
c s 188.90 527 127 28 9433 317985 22581  8% 42 4108136 90493 93%
c w 192.60 527 127 28 9433 317985 22567  8% 42 4108136 90493 93%
c W 198.61 527 136 28 9469 325040 28091  8% 41 4108136 90493 93%
c - 206.34 527 121 29 9490 340723 23049  8% 41 4108136 90493 93%
c # 207.58 527 112 29 9535 351042 30420  8% 41 4108136 90493 93%
c - 210.71 527 103 30 9550 364247 22543  8% 41 4108136 90493 93%
c 
c  seconds    reductions       redundant    irredundant
c           MB     restarts           trail         variables
c            level      conflicts         glue           remaining
c 
c B 212.34 527 94 30 9559 378043 32055  8% 41 4108136 90493 93%
c - 215.14 527 89 31 9599 388553 22494  8% 41 4108136 90493 93%
c W 226.79 527 81 31 9636 406044 33534  8% 41 4108136 90493 93%
c - 229.08 527 78 32 9653 413643 22379  8% 41 4108136 90493 93%
c F 231.84 527 71 32 9766 435045 36845  8% 41 4108136 90493 93%
c - 233.88 527 71 33 9766 439519 24292  8% 41 4108136 90493 93%
c B 240.26 527 65 33 9783 465047 41890  8% 39 4108136 90493 93%
c - 242.21 527 66 34 9826 466180 25121  8% 39 4108136 90493 93%
c - 246.50 528 66 35 9897 493624 28290  8% 40 4108136 90493 93%
c W 253.28 528 66 35 9907 496051 30207  8% 40 4108136 90493 93%
c } 254.98 528 72 35 13720 511009 34881  8% 43 4108136 90493 93%
c [ 254.98 528 3347 35 13720 511009 34881 24% 72 4108136 90493 93%
c - 257.64 528 2953 36 13720 521851 22279 22% 72 4108136 90493 93%
c W 269.33 528 3742 36 13720 528053 27233 23% 77 4108136 90493 93%
c - 275.76 537 3615 37 13727 550865 29782 26% 88 4108136 90493 93%
c s 275.99 537 3615 37 13727 550865 28521 26% 88 4108136 90493 93%
c w 279.44 537 3615 37 13727 550865 28520 26% 88 4108136 90493 93%
c I 281.57 537 3272 37 13734 561056 36718 25% 86 4108136 90493 93%
c - 285.75 534 2771 38 13741 580660 31770 23% 85 4108136 90493 93%
c B 287.82 534 2396 38 13749 595062 41499 21% 87 4108136 90493 93%
c 
c  seconds      reductions        redundant    irredundant
c           MB        restarts           trail         variables
c             level        conflicts         glue           remaining
c 
c - 295.16 533 2092 39 13751 611247 30754 19% 82 4108136 90493 93%
c W 305.38 533 1739 39 13757 630066 45743 17% 77 4108136 90493 93%
c - 308.60 531 1540 40 13764 642611 32868 16% 73 4108136 90493 93%
c O 311.84 531 1231 40 13773 666068 50363 14% 67 4108136 90493 93%
c - 314.29 531 1130 41 13779 674758 34773 13% 65 4108136 90493 93%
c B 320.85 531 860 41 13782 703070 52730 11% 60 4108136 90493 93%
c - 324.40 533 1132 42 13783 707689 31226 13% 68 4108136 90493 93%
c W 353.81 533 989 42 13784 741072 60676 18% 99 4108136 90493 93%
c - 355.51 556 986 43 13784 741405 38095 18% 99 4108136 90493 93%
c - 367.96 538 768 44 13784 775906 36450 19% 98 4108136 90493 93%
c I 369.51 538 747 44 13784 780077 40055 19% 99 4108136 90493 93%
c - 382.40 548 10007 45 13789 811190 40330 28% 118 4108136 90493 93%
c B 384.22 548 9187 45 13794 820081 47818 28% 116 4108136 90493 93%
c - 390.68 539 8496 46 13806 847259 39226 30% 110 4108136 90493 93%
c s 391.06 539 8496 46 13806 847259 38166 30% 110 4108136 90493 93%
c w 394.95 539 8496 46 13806 847259 38146 30% 110 4108136 90493 93%
c W 410.87 539 7417 46 13813 861084 48003 27% 106 4108136 90493 93%
c - 415.56 536 6290 47 13815 884111 40590 25% 102 4108136 90493 93%
c O 417.93 536 5224 47 13825 903088 55466 22% 94 4108136 90493 93%
c - 421.59 532 4349 48 13831 921749 39308 20% 87 4108136 90493 93%
c 
c  seconds      reductions        redundant    irredundant
c           MB        restarts           trail         variables
c             level        conflicts         glue           remaining
c 
c B 424.81 532 3428 48 13845 946090 56760 17% 78 4108136 90493 93%
c - 432.82 535 4973 49 13846 960171 40665 23% 84 4108136 90493 93%
c W 449.76 535 3842 49 13847 990091 63938 24% 83 4108136 90493 93%
c - 453.27 539 4313 50 13847 999378 41866 25% 86 4108136 90493 93%
c ] 458.20 539 4257 50 13860 1023009 60989 27% 89 4108136 90493 93%
c { 458.20 539 72 50 13860 1023009 60989  8% 43 4108136 90493 93%
c # 459.70 539 80 50 14141 1035092 70096  8% 43 4108136 90493 93%
c - 461.69 538 79 51 14145 1039368 43244  8% 43 4108136 90493 93%
c - 471.61 531 67 52 14189 1080141 39784  8% 42 4108136 90493 93%
c B 471.75 531 67 52 14189 1081093 40483  8% 42 4108136 90493 93%
c - 477.95 532 70 53 14433 1121697 43508  8% 41 4108136 90493 93%
c W 492.44 532 71 53 14433 1128095 48767  8% 41 4108136 90493 93%
c - 505.89 533 72 54 14461 1164038 47889  8% 41 4108136 90493 93%
c F 508.07 533 73 54 14491 1176098 57786  8% 41 4108136 90493 93%
c - 512.64 532 65 55 14496 1207164 46292  7% 40 4108136 90493 93%
c s 513.21 532 65 55 14496 1207164 42732  7% 40 4108136 90493 93%
c w 517.86 532 65 55 14496 1207164 42720  7% 40 4108136 90493 93%
c B 520.18 532 61 55 14498 1225099 55289  7% 39 4108136 90493 93%
c - 524.97 532 68 56 14861 1251073 47923  7% 39 4108136 90493 93%
c W 549.18 532 64 56 14984 1275100 64573  7% 40 4108136 90493 93%
c 
c  seconds    reductions         redundant    irredundant
c           MB      restarts            trail         variables
c            level        conflicts         glue           remaining
c 
c - 553.66 532 63 57 15057 1295766 46468  7% 40 4108136 90493 93%
c # 558.10 532 62 57 15144 1326101 70965  8% 40 4108136 90493 93%
c - 561.88 533 59 58 15157 1341243 47818  8% 40 4108136 90493 93%
c B 566.40 533 55 58 15242 1378102 76234  7% 40 4108136 90493 93%
c - 574.15 532 54 59 15301 1387504 46550  7% 40 4108136 90493 93%
c W 598.24 532 50 59 15511 1431104 74070  7% 40 4108136 90493 93%
c - 600.68 531 50 60 15511 1434551 41667  7% 40 4108136 90493 93%
c } 600.68 531 50 60 15511 1434555 41670  7% 40 4108136 90493 93%
c ? 600.68 531 50 60 15511 1434555 41670  7% 40 4108136 90493 93%
c 
c --- [ result ] -------------------------------------------------------------
c 
c UNKNOWN
c 
c --- [ run-time profiling ] -------------------------------------------------
c 
c process time taken by individual solving procedures
c (percentage relative to process time for solving)
c 
c       467.49   78.17% search
c       189.13   31.63% stable
c       148.46   24.82% unstable
c       130.55   21.83% simplify
c       129.85   21.71% walk
c        41.57    6.95% ternary
c        17.56    2.94% vivify
c        16.41    2.74% probe
c         7.61    1.27% elim
c         5.37    0.90% subsume
c         2.64    0.44% parse
c         0.04    0.01% lucky
c   =================================
c       598.04   99.56% solve
c 
c last line shows process time for solving
c (percentage relative to total process time)
c 
c --- [ statistics ] ---------------------------------------------------------
c 
c chronological:            246427        17.18 %  of conflicts
c conflicts:               1434555      2398.76    per second
c decisions:               3364585      5626.02    per second
c eliminated:                 4914         5.06 %  of all variables
c fixed:                      1681         1.73 %  of all variables
c learned:                 1419615        98.96 %  per conflict
c learned_lits:          203354829       100.00 %  learned literals
c minimized:                     0         0.00 %  learned literals
c shrunken:               83746528        41.18 %  learned literals
c minishrunken:            6888171         3.39 %  learned literals
c propagations:          475630075         0.80 M  per second
c reduced:                 1001846        69.84 %  per conflict
c rephased:                     53     27067.08    interval
c restarts:                  15511        92.49    interval
c stabilizing:                   5        47.54 %  of conflicts
c subsumed:                 373583         3.17 %  of all clauses
c strengthened:              17198         0.15 %  of all clauses
c vivified:                     78         0.00 %  of all clauses
c walked:                       17     84385.59    interval
c weakened:                 365924         3.70    average size
c 
c seconds are measured in process time for solving
c 
c --- [ resources ] ----------------------------------------------------------
c 
c total process time since initialization:       600.69    seconds
c total real time since initialization:          600.80    seconds
c maximum resident set size of process:          678.67    MB
c 
c --- [ shutting down ] ------------------------------------------------------
c 
c exit 0
